(declare-const x Bool)
(declare-const x1 Bool)
(declare-const x8 Bool)
(declare-fun a () Real)
(declare-fun va () Real)
(declare-fun r4 () Real)
(declare-fun r1 () Real)
(declare-fun r3 () Int)
(declare-fun ar3 () Real)
(declare-fun r () Real)
(declare-fun r2 () Real)
(declare-fun ar () Real)
(declare-fun r31 () Real)
(declare-fun r36 () Int)
(declare-fun r43 () Real)
(declare-fun v () Real)
(assert (or (and x8 x x1 (> v (/ ar va))) (and x8 (< 0.0 r43) (< r4 (/ r31 r31)) (= 1 (* r43 r43 3)) (= (/ 1 4) (+ r3 1 (* r36 a)))) (and (< va ar3) (not (and (= (+ 1.0 (* r1 r2)) r) (= a 0.0))))))
(check-sat)
